Solver command line: ['/Applications/anaconda/anaconda3/bin/ipopt', '/var/folders/w_/m29zsl5x4ql3k3cxt_mmm8t80000gn/T/tmpttmyu3ni.pyomo.nl', '-AMPL', 'max_iter=10000', 'acceptable_tol=0.0001', 'tol=0.0001', 'dual_inf_tol=0.0001']

Ipopt 3.12.12: max_iter=10000
acceptable_tol=0.0001
tol=0.0001
dual_inf_tol=0.0001


******************************************************************************
This program contains Ipopt, a library for large-scale nonlinear optimization.
 Ipopt is released as open source code under the Eclipse Public License (EPL).
         For more information visit http://projects.coin-or.org/Ipopt
******************************************************************************

This is Ipopt version 3.12.12, running with linear solver mumps.
NOTE: Other linear solvers might be more efficient (see Ipopt documentation).

Number of nonzeros in equality constraint Jacobian...:     1158
Number of nonzeros in inequality constraint Jacobian.:        0
Number of nonzeros in Lagrangian Hessian.............:      462

Error in an AMPL evaluation. Run with "halt_on_ampl_error yes" to see details.
Error evaluating objective gradient at user provided starting point.
  No scaling factor for objective function computed!
Total number of variables............................:      184
                     variables with only lower bounds:      184
                variables with lower and upper bounds:        0
                     variables with only upper bounds:        0
Total number of equality constraints.................:      136
Total number of inequality constraints...............:        0
        inequality constraints with only lower bounds:        0
   inequality constraints with lower and upper bounds:        0
        inequality constraints with only upper bounds:        0

iter    objective    inf_pr   inf_du lg(mu)  ||d||  lg(rg) alpha_du alpha_pr  ls
   0  4.0387351e+03 9.80e-01 1.38e+04  -1.0 0.00e+00    -  0.00e+00 0.00e+00   0
   1  3.8796036e+03 9.76e-01 1.42e+04  -1.0 2.44e+00    -  2.47e-02 4.06e-03f  1
   2  3.8774593e+03 9.76e-01 1.41e+04  -1.0 2.21e+01    -  6.18e-04 6.17e-05h  1
   3  3.8765010e+03 9.76e-01 1.41e+04  -1.0 2.62e+02    -  4.21e-05 2.58e-05h  1
   4  3.8747343e+03 9.76e-01 1.41e+04  -1.0 7.01e+02    -  2.63e-05 4.23e-05f  1
   5  3.8736592e+03 9.76e-01 1.41e+04  -1.0 1.10e+03    -  2.31e-05 2.07e-05f  1
   6r 3.8736592e+03 9.76e-01 9.99e+02  -0.0 0.00e+00    -  0.00e+00 2.73e-07R  2
   7r 3.6765947e+03 9.71e-01 9.99e+02  -0.0 6.99e+02    -  3.01e-05 2.39e-05f  1
   8r 1.6834736e+03 8.04e-01 9.99e+02  -0.0 6.95e+02    -  9.49e-05 1.29e-03f  1
   9  1.6776579e+03 8.00e-01 2.47e+03  -1.0 1.19e+00    -  2.85e-02 4.19e-03f  1
iter    objective    inf_pr   inf_du lg(mu)  ||d||  lg(rg) alpha_du alpha_pr  ls
  10  1.6587564e+03 7.89e-01 2.44e+03  -1.0 1.28e+00    -  3.97e-02 1.42e-02f  1
  11  1.6394803e+03 7.77e-01 2.40e+03  -1.0 4.64e+00    -  1.88e-02 1.56e-02f  1
  12  1.6196726e+03 7.62e-01 2.36e+03  -1.0 1.27e+00   2.0 1.80e-01 1.88e-02f  1
  13  1.6050587e+03 7.52e-01 2.32e+03  -1.0 1.36e+00   1.5 9.61e-02 1.34e-02f  1
  14  1.5595885e+03 7.16e-01 2.21e+03  -1.0 1.40e+00   1.9 6.82e-02 4.69e-02f  1
  15  1.5293590e+03 6.87e-01 2.13e+03  -1.0 1.48e+00   2.4 1.31e-01 4.08e-02f  1
  16  1.5156963e+03 6.70e-01 7.02e+03  -1.0 1.58e+00   2.8 1.74e-01 2.55e-02f  1
  17  1.5113545e+03 6.66e-01 6.94e+03  -1.0 6.71e+00   2.3 7.69e-03 5.27e-03f  1
  18  1.5107218e+03 6.65e-01 2.83e+04  -1.0 1.72e+00   2.7 4.49e-01 1.93e-03f  1
  19  1.4988350e+03 6.54e-01 2.78e+04  -1.0 5.23e+00   2.3 3.47e-02 1.58e-02f  1
iter    objective    inf_pr   inf_du lg(mu)  ||d||  lg(rg) alpha_du alpha_pr  ls
  20  1.4973461e+03 6.53e-01 2.69e+04  -1.0 1.92e+01   1.8 7.84e-03 2.22e-03f  1
  21  1.4932133e+03 6.53e-01 2.70e+04  -1.0 1.41e+02   1.3 1.36e-05 6.31e-04f  1
  22  1.4923354e+03 6.51e-01 2.76e+04  -1.0 2.56e+00   2.6 2.16e-02 2.28e-03f  1
  23  1.4893796e+03 6.47e-01 2.76e+04  -1.0 4.01e+00   2.2 3.44e-01 5.83e-03f  1
  24  1.4597087e+03 6.05e-01 2.77e+04  -1.0 6.56e+00    -  9.92e-03 6.58e-02f  1
  25  1.4555669e+03 6.00e-01 2.85e+04  -1.0 2.36e+00    -  2.79e-02 8.07e-03f  1
  26  1.4466595e+03 5.90e-01 3.20e+04  -1.0 1.69e+01    -  5.06e-02 1.70e-02f  1
  27  1.4332981e+03 5.67e-01 3.19e+04  -1.0 4.78e+00    -  2.49e-02 3.91e-02f  1
  28  1.4324609e+03 5.65e-01 2.95e+04  -1.0 1.33e+00    -  1.31e-01 2.72e-03f  1
  29  1.4041800e+03 5.02e-01 2.54e+04  -1.0 1.64e+00    -  1.50e-01 1.12e-01f  1
iter    objective    inf_pr   inf_du lg(mu)  ||d||  lg(rg) alpha_du alpha_pr  ls
  30  1.3503599e+03 4.03e-01 3.29e+04  -1.0 6.64e-01    -  3.23e-03 1.97e-01f  1
  31  1.3494170e+03 4.01e-01 2.87e+04  -1.0 1.27e+00    -  1.42e-01 3.76e-03f  1
  32  1.3227458e+03 3.72e-01 2.96e+04  -1.0 9.83e-01    -  1.52e-03 7.27e-02f  1
  33  1.3199016e+03 3.71e-01 2.19e+04  -1.0 8.63e-01    -  1.37e-01 3.92e-03f  1
  34  1.2992747e+03 3.59e-01 2.08e+04  -1.0 1.23e+01    -  3.60e-02 3.08e-02f  1
  35  1.2140600e+03 2.98e-01 2.29e+04  -1.0 6.15e-01    -  1.73e-02 1.70e-01f  1
  36  1.1662959e+03 2.60e-01 2.21e+04  -1.0 3.69e-01   1.7 2.70e-02 1.28e-01f  1
  37  1.1658518e+03 2.60e-01 2.06e+04  -1.0 7.08e-01   2.1 1.11e-01 1.20e-03h  1
  38  1.1193075e+03 1.73e-01 1.65e+04  -1.0 5.71e-01   1.6 8.27e-02 3.34e-01f  1
  39  1.0872937e+03 1.34e-01 1.09e+04  -1.0 2.76e-01   1.2 4.18e-01 2.26e-01f  1
iter    objective    inf_pr   inf_du lg(mu)  ||d||  lg(rg) alpha_du alpha_pr  ls
  40  1.0331661e+03 8.39e-02 7.32e+03  -1.0 2.08e-01   1.6 3.34e-01 3.74e-01f  1
  41  1.0076210e+03 7.03e-02 6.25e+03  -1.0 2.44e-01   2.0 1.56e-01 1.62e-01f  1
  42  9.9667806e+02 6.71e-02 6.15e+03  -1.0 1.51e+00   1.5 4.31e-02 4.55e-02f  1
  43  9.8171092e+02 6.40e-02 5.99e+03  -1.0 5.26e+00   1.1 2.50e-02 4.65e-02f  1
  44  9.6988278e+02 6.07e-02 5.72e+03  -1.0 2.52e+00   0.6 1.95e-01 5.12e-02f  1
  45  9.6868409e+02 6.07e-02 5.70e+03  -1.0 3.55e+02    -  2.02e-03 8.83e-04f  1
  46  8.7245225e+02 2.15e-02 2.26e+03  -1.0 3.63e-01    -  4.17e-01 6.46e-01f  1
  47  8.3275954e+02 1.61e-02 2.31e+03  -1.0 4.56e-01    -  2.00e-02 2.99e-01f  1
  48  7.8912229e+02 2.30e-02 1.36e+03  -1.0 4.04e+00   1.0 2.08e-01 2.07e-01f  1
  49  7.8769001e+02 2.29e-02 1.35e+03  -1.0 3.36e+00   1.4 4.15e-03 3.54e-03f  1
iter    objective    inf_pr   inf_du lg(mu)  ||d||  lg(rg) alpha_du alpha_pr  ls
  50  7.7573164e+02 1.55e-02 8.81e+02  -1.0 3.29e-01   1.9 3.24e-01 3.02e-01f  1
  51  7.7469914e+02 1.53e-02 8.48e+02  -1.0 1.82e+00   1.4 9.28e-02 1.42e-02f  1
  52  7.7255281e+02 1.20e-02 7.72e+02  -1.0 1.12e+00    -  2.79e-02 2.15e-01f  1
  53  7.7185365e+02 1.20e-02 7.90e+02  -1.0 7.13e+00   0.9 3.92e-04 4.62e-03f  1
  54  7.7234335e+02 1.19e-02 8.32e+02  -1.0 1.03e+01   1.3 2.19e-02 3.40e-03h  1
  55  7.7194750e+02 1.16e-02 8.71e+02  -1.0 1.98e+00    -  6.91e-04 2.26e-02f  1
  56  7.7114507e+02 1.16e-02 8.57e+02  -1.0 2.58e+01   0.9 1.08e-03 1.74e-03f  1
  57  7.7056674e+02 1.11e-02 6.43e+02  -1.0 6.64e-01   2.2 2.26e-01 4.43e-02f  1
  58  7.6760144e+02 9.25e-03 5.26e+02  -1.0 1.56e-01   1.7 2.99e-01 1.67e-01f  1
  59  7.5796251e+02 7.96e-03 1.70e+03  -1.0 2.86e-01    -  1.52e-01 5.39e-01f  1
iter    objective    inf_pr   inf_du lg(mu)  ||d||  lg(rg) alpha_du alpha_pr  ls
  60  7.5266218e+02 7.73e-03 1.58e+03  -1.0 3.57e+00   1.2 8.08e-03 3.32e-02f  1
  61  7.4416941e+02 4.65e-03 3.33e+03  -1.0 4.82e-01   1.7 7.60e-01 6.32e-01f  1
  62  7.3331227e+02 4.57e-03 1.37e+04  -1.0 1.95e-01   2.1 7.56e-01 9.91e-01h  1
  63  7.3083323e+02 4.46e-03 2.79e+05  -1.0 5.83e-01   1.6 3.43e-01 8.44e-02f  1
  64  7.2978667e+02 4.14e-03 2.68e+05  -1.0 1.49e+00    -  8.04e-02 7.56e-02f  1
  65  7.2849562e+02 4.04e-03 3.00e+05  -1.0 4.92e+00    -  6.16e-02 3.18e-02f  1
  66  7.2792315e+02 3.35e-03 1.15e+06  -1.0 1.02e+00    -  1.00e+00 1.94e-01h  1
  67  7.2307186e+02 2.07e-03 7.87e+05  -1.0 9.13e-01    -  5.23e-01 5.72e-01f  1
  68  7.0868890e+02 6.86e-03 1.19e+06  -1.0 1.76e+00    -  1.98e-01 2.27e-01f  1
  69  7.0247972e+02 6.23e-03 1.42e+06  -1.0 6.83e-01    -  2.54e-01 2.66e-01f  1
iter    objective    inf_pr   inf_du lg(mu)  ||d||  lg(rg) alpha_du alpha_pr  ls
  70  7.0248772e+02 5.90e-03 1.45e+06  -1.0 5.73e-04   9.5 1.00e+00 2.97e-01H  1
  71  7.0248843e+02 5.89e-03 1.45e+06  -1.0 8.37e-03   9.0 4.38e-02 1.54e-03h  1
  72  7.0252564e+02 5.36e-03 1.75e+06  -1.0 8.24e-03   8.5 9.67e-02 8.97e-02h  1
  73  7.0252657e+02 5.35e-03 1.75e+06  -1.7 7.38e-03   8.0 2.11e-01 2.34e-03h  1
  74  7.0267782e+02 3.35e-03 3.05e+06  -1.7 7.31e-03   7.5 4.21e-01 3.73e-01h  1
  75  7.0267977e+02 3.32e-03 2.92e+06  -1.7 4.69e-03   7.1 8.74e-01 8.39e-03h  1
  76  7.0272682e+02 2.66e-03 2.38e+06  -1.7 5.13e-03   6.6 8.91e-01 1.99e-01h  1
  77  7.0282590e+02 1.90e-03 1.72e+06  -1.7 4.93e-03   6.1 5.73e-01 2.85e-01h  1
  78  7.0342134e+02 9.84e-05 1.16e+05  -1.7 4.38e-03   5.6 7.12e-01 9.42e-01h  1
  79  7.0326574e+02 5.51e-08 2.63e+04  -2.5 3.65e-04   5.2 9.91e-01 1.00e+00f  1
iter    objective    inf_pr   inf_du lg(mu)  ||d||  lg(rg) alpha_du alpha_pr  ls
  80  7.0326570e+02 5.64e-06 1.30e+04  -3.8 1.03e-06  10.1 1.00e+00 1.00e+00s 22
  81  7.0326570e+02 5.26e-06 1.20e+04  -3.8 1.64e-06   9.6 6.77e-02 6.77e-02s 22
  82  7.0326568e+02 4.31e-06 9.62e+03  -3.8 1.53e-06   9.1 1.80e-01 1.80e-01s 22
  83  7.0326557e+02 2.09e-08 4.99e+04  -3.8 1.28e-06   8.7 9.95e-01 0.00e+00S 22
  84  7.0326557e+02 6.48e-08 4.96e+04  -3.8 1.79e-06  10.0 6.15e-03 6.15e-03s 15
  85  7.0326556e+02 1.55e-06 4.30e+04  -3.8 1.52e-06  10.4 9.84e-01 0.00e+00S 15
  86  7.0326556e+02 9.57e-14 1.49e+04  -3.8 1.48e-06   9.9 1.00e+00 1.00e+00h  1
  87  7.0326556e+02 1.90e-06 7.16e+03  -3.8 3.00e-07  10.4 1.00e+00 9.32e-01f  1
  88  7.0326555e+02 9.48e-07 2.10e+08  -3.8 3.75e-07   9.9 1.86e-04 5.00e-01f  2
  89  7.0326554e+02 2.36e-14 1.25e+04  -3.8 2.10e-07   9.4 1.00e+00 1.00e+00h  1
Restoration phase is called at point that is almost feasible,
  with constraint violation 1.746491e-13. Abort.

Number of Iterations....: 89

                                   (scaled)                 (unscaled)
Objective...............:   7.0326554382059601e+02    7.0326554382059601e+02
Dual infeasibility......:   1.2451626749858471e+04    1.2451626749858471e+04
Constraint violation....:   2.3592193786467596e-14    2.3592193786467596e-14
Complementarity.........:   3.0068549578551738e-04    3.0068549578551738e-04
Overall NLP error.......:   5.0752498442401342e-04    1.2451626749858471e+04


Number of objective function evaluations             = 157
Number of objective gradient evaluations             = 90
Number of equality constraint evaluations            = 157
Number of inequality constraint evaluations          = 0
Number of equality constraint Jacobian evaluations   = 92
Number of inequality constraint Jacobian evaluations = 0
Number of Lagrangian Hessian evaluations             = 90
Total CPU secs in IPOPT (w/o function evaluations)   =      1.501
Total CPU secs in NLP function evaluations           =      0.051

EXIT: Restoration Failed!

